[[24,29,39,73,156,161,250,324,348,363,802],[47,68,253,310,338,344,572,594,632,704,709,730,735,964],[55,75,82,192,273,276,375,459,532,566,670,671,857,926,991],[64,166,198,201,215,346,371,457,473,480,550,711,851,958,959],[2,65,70,113,174,200,342,579,691,756,764,786,795,828,835],[38,229,272,296,317,366,409,424,466,586,607,633,684,753,920],[1,89,137,153,214,225,376,394,398,399,832,848,941,994,999]]